language ESSENCE' 1.0

letting n_warehouses be 3
letting n_stores be 2
letting opencost_Function1D be [30, 10, 40; int(1..3)]
letting cost_FunctionND be [[10, 7, 8; int(1..3)], [5, 3, 9; int(1..3)]; int(1..2)]
$ Visualisation for cost_FunctionND
$ 10  7  8
$  5  3  9

letting capacity_Function1D be [20, 10, 10; int(1..3)]
letting fin1 be 3
letting fin2 be 20
letting fin3 be 3
letting fin4 be 40
letting fin5 be 6
letting fin6 be 10
